unsat
( c10
  c100
  c113
  c116
  c129
  c131
  c146
  c164
  c167
  c17
  c183
  c185
  c202
  c222
  c224
  c243
  c244
  c265
  c266
  c288
  c29
  c312
  c313
  c337
  c338
  c340
  c344
  c349
  c356
  c368
  c377
  c38
  c387
  c398
  c410
  c423
  c437
  c439
  c452
  c453
  c468
  c48
  c485
  c487
  c5
  c503
  c505
  c506
  c522
  c541
  c543
  c561
  c562
  c582
  c583
  c584
  c59
  c604
  c627
  c628
  c629
  c651
  c652
  c653
  c676
  c678
  c681
  c683
  c686
  c687
  c688
  c689
  c690
  c691
  c692
  c695
  c696
  c71
  c73
  c84
  c98 )
